language ESSENCE' 1.0
letting lastdx=112
letting cage be [
[29,6,2,6,3,6,4,6,5,0,0],
[36,2,6,2,5,3,5,0,0, 0,0],
[15,13,14,0,0, 0,0, 0,0, 0,0],
[23,11,6,10,6,0,0, 0,0, 0,0],
[36,13,9,13,8,12,8,0,0, 0,0],
[15,10,7,0,0, 0,0, 0,0, 0,0],
[13,5,7,0,0, 0,0, 0,0, 0,0],
[21,5,2,5,3,0,0, 0,0, 0,0],
[5,14,4,0,0, 0,0, 0,0, 0,0],
[17,15,15,15,16,14,16,0,0, 0,0],
[16,11,4,0,0, 0,0, 0,0, 0,0],
[13,13,12,13,11,12,11,11,11,0,0],
[9,8,5,8,4,7,4,0,0, 0,0],
[4,11,8,0,0, 0,0, 0,0, 0,0],
[12,3,15,0,0, 0,0, 0,0, 0,0],
[3,14,6,0,0, 0,0, 0,0, 0,0],
[14,2,15,0,0, 0,0, 0,0, 0,0],
[15,15,4,0,0, 0,0, 0,0, 0,0],
[13,6,8,5,8,5,9,0,0, 0,0],
[27,1,16,2,16,3,16,0,0, 0,0],
[8,9,3,0,0, 0,0, 0,0, 0,0],
[12,10,10,0,0, 0,0, 0,0, 0,0],
[43,5,12,5,13,5,14,6,14,7,14],
[9,10,2,0,0, 0,0, 0,0, 0,0],
[8,16,2,0,0, 0,0, 0,0, 0,0],
[22,14,15,14,14,0,0, 0,0, 0,0],
[4,13,5,0,0, 0,0, 0,0, 0,0],
[13,12,1,11,1,0,0, 0,0, 0,0],
[50,15,10,14,10,13,10,12,10,0,0],
[27,9,16,8,16,8,15,0,0, 0,0],
[1,15,6,0,0, 0,0, 0,0, 0,0],
[13,2,2,0,0, 0,0, 0,0, 0,0],
[11,10,9,0,0, 0,0, 0,0, 0,0],
[26,15,2,15,3,0,0, 0,0, 0,0],
[36,1,12,1,11,1,10,2,10,2,11],
[8,13,7,0,0, 0,0, 0,0, 0,0],
[20,16,15,16,16,0,0, 0,0, 0,0],
[3,10,3,0,0, 0,0, 0,0, 0,0],
[25,9,11,9,10,9,9,0,0, 0,0],
[27,7,13,7,12,8,12,9,12,0,0],
[8,8,7,9,7,0,0, 0,0, 0,0],
[12,5,4,0,0, 0,0, 0,0, 0,0],
[8,1,4,1,3,2,3,0,0, 0,0],
[26,13,16,12,16,11,16,0,0, 0,0],
[21,4,7,4,6,5,6,6,6,0,0],
[25,13,3,12,3,12,4,13,4,0,0],
[7,6,16,0,0, 0,0, 0,0, 0,0],
[20,16,5,15,5,14,5,0,0, 0,0],
[4,8,13,0,0, 0,0, 0,0, 0,0],
[5,3,3,0,0, 0,0, 0,0, 0,0],
[10,4,9,0,0, 0,0, 0,0, 0,0],
[1,6,9,0,0, 0,0, 0,0, 0,0],
[15,1,7,2,7,0,0, 0,0, 0,0],
[14,15,13,16,13,0,0, 0,0, 0,0],
[18,3,4,2,4,0,0, 0,0, 0,0],
[13,7,10,6,10,0,0, 0,0, 0,0],
[19,12,9,11,9,11,10,0,0, 0,0],
[1,11,15,0,0, 0,0, 0,0, 0,0],
[45,4,2,3,2,3,1,0,0, 0,0],
[42,16,8,16,9,16,10,16,11,0,0],
[9,5,15,0,0, 0,0, 0,0, 0,0],
[10,15,14,16,14,0,0, 0,0, 0,0],
[6,10,16,0,0, 0,0, 0,0, 0,0],
[16,9,6,0,0, 0,0, 0,0, 0,0],
[8,8,1,0,0, 0,0, 0,0, 0,0],
[14,6,7,0,0, 0,0, 0,0, 0,0],
[20,3,9,3,10,0,0, 0,0, 0,0],
[10,2,14,2,13,0,0, 0,0, 0,0],
[13,9,1,10,1,9,2,0,0, 0,0],
[15,4,12,0,0, 0,0, 0,0, 0,0],
[10,14,11,15,11,0,0, 0,0, 0,0],
[33,6,15,7,15,7,16,0,0, 0,0],
[41,7,2,8,2,8,3,7,3,0,0],
[34,3,12,2,12,3,11,4,11,0,0],
[18,8,9,8,10,0,0, 0,0, 0,0],
[43,11,12,12,12,10,12,10,11,0,0],
[42,15,7,15,8,14,8,14,7,0,0],
[30,5,5,4,5,4,4,4,3,0,0],
[9,4,1,0,0, 0,0, 0,0, 0,0],
[3,16,1,0,0, 0,0, 0,0, 0,0],
[7,10,8,0,0, 0,0, 0,0, 0,0],
[9,11,14,0,0, 0,0, 0,0, 0,0],
[18,16,3,16,4,0,0, 0,0, 0,0],
[11,15,9,14,9,0,0, 0,0, 0,0],
[33,6,1,5,1,7,1,0,0, 0,0],
[12,13,2,0,0, 0,0, 0,0, 0,0],
[1,4,8,0,0, 0,0, 0,0, 0,0],
[24,10,15,10,14,10,13,9,13,0,0],
[24,3,6,3,7,0,0, 0,0, 0,0],
[11,12,7,11,7,0,0, 0,0, 0,0],
[18,1,1,1,2,2,1,0,0, 0,0],
[21,1,5,1,6,0,0, 0,0, 0,0],
[13,1,8,0,0, 0,0, 0,0, 0,0],
[14,1,9,0,0, 0,0, 0,0, 0,0],
[28,1,13,1,14,1,15,0,0, 0,0],
[17,2,8,2,9,3,8,0,0, 0,0],
[23,3,13,4,13,4,14,3,14,0,0],
[4,4,10,0,0, 0,0, 0,0, 0,0],
[6,4,15,0,0, 0,0, 0,0, 0,0],
[17,4,16,5,16,0,0, 0,0, 0,0],
[16,5,10,0,0, 0,0, 0,0, 0,0],
[27,5,11,6,11,0,0, 0,0, 0,0],
[14,6,12,6,13,0,0, 0,0, 0,0],
[35,7,5,7,6,8,6,7,7,0,0],
[16,7,8,7,9,0,0, 0,0, 0,0],
[27,7,11,8,11,0,0, 0,0, 0,0],
[19,8,8,9,8,0,0, 0,0, 0,0],
[29,8,14,9,14,9,15,0,0, 0,0],
[30,11,2,11,3,12,2,0,0, 0,0],
[12,12,5,0,0, 0,0, 0,0, 0,0],
[17,12,6,13,6,0,0, 0,0, 0,0],
[41,13,1,14,1,15,1,14,2,14,3],
[23,16,6,16,7,0,0, 0,0, 0,0]
]
